c Created with the Wolfram Language : www.wolfram.com
c 
p edge 100 751
e 1 2
e 1 3
e 2 4
e 3 7
e 4 7
e 6 10
e 2 11
e 7 11
e 8 11
e 3 12
e 10 12
e 8 13
e 5 14
e 12 14
e 5 15
e 6 15
e 8 16
e 3 17
e 8 17
e 10 17
e 1 18
e 2 18
e 5 18
e 6 18
e 11 18
e 13 18
e 14 18
e 8 19
e 11 19
e 13 19
e 5 20
e 11 20
e 15 20
e 18 20
e 7 21
e 12 21
e 13 21
e 3 22
e 18 22
e 21 22
e 7 23
e 11 23
e 17 24
e 21 24
e 1 25
e 7 25
e 22 25
e 9 26
e 23 26
e 3 27
e 7 27
e 12 27
e 1 28
e 6 28
e 14 28
e 17 28
e 20 28
e 4 29
e 6 29
e 10 29
e 27 29
e 10 30
e 12 30
e 13 30
e 21 30
e 24 30
e 29 30
e 1 31
e 4 31
e 5 31
e 10 31
e 13 31
e 18 31
e 23 31
e 27 31
e 2 32
e 7 32
e 8 32
e 2 33
e 4 33
e 6 33
e 8 33
e 9 33
e 23 33
e 27 33
e 32 33
e 10 34
e 12 34
e 31 34
e 13 35
e 14 35
e 16 35
e 20 35
e 23 35
e 17 36
e 23 36
e 25 36
e 29 36
e 30 36
e 34 36
e 2 37
e 20 37
e 22 37
e 28 37
e 7 38
e 8 38
e 15 38
e 3 39
e 10 39
e 18 39
e 21 39
e 36 39
e 19 40
e 2 41
e 4 41
e 19 41
e 22 41
e 25 41
e 36 41
e 38 41
e 39 41
e 40 41
e 5 42
e 17 42
e 28 42
e 39 42
e 40 42
e 17 43
e 26 43
e 28 43
e 33 43
e 35 43
e 39 43
e 18 44
e 19 44
e 23 44
e 34 44
e 1 45
e 5 45
e 11 45
e 16 45
e 22 45
e 28 45
e 31 45
e 33 45
e 35 45
e 37 45
e 6 46
e 9 46
e 12 46
e 13 46
e 14 46
e 15 46
e 16 46
e 19 46
e 20 46
e 28 46
e 31 46
e 1 47
e 7 47
e 8 47
e 9 47
e 16 47
e 19 47
e 25 47
e 26 47
e 30 47
e 34 47
e 42 47
e 46 47
e 13 48
e 18 48
e 37 48
e 40 48
e 47 48
e 3 49
e 4 49
e 5 49
e 6 49
e 7 49
e 15 49
e 27 49
e 43 49
e 7 50
e 8 50
e 18 50
e 19 50
e 27 50
e 28 50
e 31 50
e 36 50
e 40 50
e 42 50
e 43 50
e 46 50
e 11 51
e 12 51
e 14 51
e 30 51
e 32 51
e 33 51
e 49 51
e 1 52
e 9 52
e 11 52
e 14 52
e 24 52
e 25 52
e 30 52
e 42 52
e 43 52
e 44 52
e 50 52
e 1 53
e 6 53
e 7 53
e 9 53
e 14 53
e 16 53
e 31 53
e 32 53
e 40 53
e 43 53
e 48 53
e 6 54
e 8 54
e 15 54
e 24 54
e 28 54
e 34 54
e 42 54
e 43 54
e 44 54
e 51 54
e 2 55
e 24 55
e 36 55
e 52 55
e 1 56
e 8 56
e 18 56
e 23 56
e 38 56
e 51 56
e 7 57
e 11 57
e 13 57
e 15 57
e 19 57
e 21 57
e 26 57
e 32 57
e 39 57
e 42 57
e 44 57
e 48 57
e 50 57
e 11 58
e 15 58
e 24 58
e 32 58
e 34 58
e 35 58
e 43 58
e 45 58
e 47 58
e 3 59
e 5 59
e 16 59
e 24 59
e 26 59
e 35 59
e 40 59
e 45 59
e 50 59
e 53 59
e 5 60
e 11 60
e 14 60
e 17 60
e 18 60
e 27 60
e 30 60
e 33 60
e 45 60
e 2 61
e 3 61
e 11 61
e 12 61
e 19 61
e 21 61
e 30 61
e 42 61
e 47 61
e 49 61
e 52 61
e 7 62
e 14 62
e 23 62
e 24 62
e 28 62
e 31 62
e 33 62
e 34 62
e 41 62
e 58 62
e 59 62
e 61 62
e 19 63
e 23 63
e 25 63
e 31 63
e 32 63
e 40 63
e 58 63
e 61 63
e 1 64
e 9 64
e 20 64
e 29 64
e 55 64
e 57 64
e 60 64
e 1 65
e 9 65
e 18 65
e 23 65
e 24 65
e 26 65
e 30 65
e 31 65
e 43 65
e 49 65
e 55 65
e 56 65
e 57 65
e 2 66
e 13 66
e 14 66
e 18 66
e 22 66
e 26 66
e 32 66
e 37 66
e 62 66
e 65 66
e 1 67
e 10 67
e 26 67
e 32 67
e 42 67
e 46 67
e 50 67
e 57 67
e 3 68
e 9 68
e 10 68
e 13 68
e 14 68
e 18 68
e 21 68
e 29 68
e 37 68
e 38 68
e 45 68
e 60 68
e 66 68
e 16 69
e 20 69
e 36 69
e 57 69
e 59 69
e 64 69
e 65 69
e 3 70
e 8 70
e 16 70
e 21 70
e 66 70
e 69 70
e 3 71
e 5 71
e 6 71
e 7 71
e 11 71
e 26 71
e 35 71
e 40 71
e 54 71
e 56 71
e 59 71
e 63 71
e 67 71
e 68 71
e 69 71
e 1 72
e 13 72
e 14 72
e 19 72
e 20 72
e 41 72
e 43 72
e 51 72
e 54 72
e 56 72
e 62 72
e 1 73
e 3 73
e 11 73
e 18 73
e 19 73
e 32 73
e 34 73
e 43 73
e 47 73
e 68 73
e 5 74
e 26 74
e 36 74
e 39 74
e 62 74
e 68 74
e 70 74
e 24 75
e 27 75
e 29 75
e 33 75
e 35 75
e 39 75
e 48 75
e 49 75
e 53 75
e 60 75
e 62 75
e 67 75
e 68 75
e 69 75
e 74 75
e 14 76
e 15 76
e 16 76
e 19 76
e 35 76
e 48 76
e 69 76
e 74 76
e 5 77
e 29 77
e 39 77
e 41 77
e 45 77
e 62 77
e 67 77
e 68 77
e 70 77
e 72 77
e 76 77
e 2 78
e 7 78
e 9 78
e 12 78
e 17 78
e 21 78
e 37 78
e 40 78
e 48 78
e 59 78
e 64 78
e 65 78
e 67 78
e 76 78
e 10 79
e 14 79
e 15 79
e 16 79
e 19 79
e 20 79
e 31 79
e 43 79
e 52 79
e 55 79
e 67 79
e 70 79
e 76 79
e 12 80
e 17 80
e 20 80
e 51 80
e 53 80
e 65 80
e 78 80
e 9 81
e 26 81
e 30 81
e 38 81
e 41 81
e 48 81
e 66 81
e 67 81
e 3 82
e 4 82
e 7 82
e 28 82
e 34 82
e 35 82
e 37 82
e 43 82
e 47 82
e 53 82
e 64 82
e 10 83
e 12 83
e 15 83
e 16 83
e 19 83
e 25 83
e 48 83
e 62 83
e 64 83
e 65 83
e 68 83
e 76 83
e 1 84
e 6 84
e 18 84
e 31 84
e 42 84
e 43 84
e 45 84
e 48 84
e 56 84
e 57 84
e 71 84
e 6 85
e 9 85
e 19 85
e 33 85
e 37 85
e 48 85
e 53 85
e 59 85
e 61 85
e 74 85
e 78 85
e 10 86
e 11 86
e 30 86
e 36 86
e 43 86
e 48 86
e 49 86
e 56 86
e 57 86
e 63 86
e 72 86
e 3 87
e 4 87
e 7 87
e 13 87
e 15 87
e 17 87
e 25 87
e 28 87
e 37 87
e 43 87
e 52 87
e 55 87
e 56 87
e 61 87
e 64 87
e 65 87
e 73 87
e 79 87
e 81 87
e 82 87
e 84 87
e 3 88
e 8 88
e 23 88
e 25 88
e 29 88
e 35 88
e 45 88
e 50 88
e 69 88
e 71 88
e 76 88
e 82 88
e 86 88
e 13 89
e 21 89
e 24 89
e 27 89
e 34 89
e 53 89
e 61 89
e 69 89
e 75 89
e 79 89
e 12 90
e 33 90
e 39 90
e 45 90
e 47 90
e 54 90
e 56 90
e 61 90
e 64 90
e 66 90
e 72 90
e 82 90
e 87 90
e 12 91
e 14 91
e 16 91
e 26 91
e 40 91
e 43 91
e 54 91
e 57 91
e 66 91
e 70 91
e 74 91
e 77 91
e 79 91
e 2 92
e 7 92
e 11 92
e 13 92
e 18 92
e 43 92
e 45 92
e 48 92
e 53 92
e 63 92
e 64 92
e 66 92
e 70 92
e 71 92
e 78 92
e 80 92
e 14 93
e 15 93
e 17 93
e 18 93
e 54 93
e 55 93
e 56 93
e 59 93
e 68 93
e 70 93
e 73 93
e 29 94
e 33 94
e 35 94
e 37 94
e 39 94
e 46 94
e 48 94
e 51 94
e 52 94
e 53 94
e 57 94
e 60 94
e 65 94
e 68 94
e 72 94
e 92 94
e 5 95
e 16 95
e 22 95
e 32 95
e 38 95
e 43 95
e 54 95
e 60 95
e 63 95
e 66 95
e 68 95
e 70 95
e 74 95
e 76 95
e 1 96
e 9 96
e 11 96
e 12 96
e 23 96
e 27 96
e 28 96
e 30 96
e 35 96
e 37 96
e 44 96
e 62 96
e 71 96
e 82 96
e 2 97
e 3 97
e 6 97
e 18 97
e 22 97
e 23 97
e 26 97
e 30 97
e 35 97
e 39 97
e 44 97
e 60 97
e 69 97
e 82 97
e 92 97
e 8 98
e 27 98
e 39 98
e 45 98
e 49 98
e 51 98
e 55 98
e 57 98
e 63 98
e 68 98
e 69 98
e 70 98
e 78 98
e 82 98
e 85 98
e 87 98
e 90 98
e 5 99
e 6 99
e 7 99
e 11 99
e 14 99
e 15 99
e 23 99
e 37 99
e 47 99
e 48 99
e 50 99
e 62 99
e 65 99
e 71 99
e 74 99
e 83 99
e 91 99
e 92 99
e 93 99
e 5 100
e 39 100
e 52 100
e 99 100
